p cnf 287 1226
-29 50 43 10 -11 0
42 -27 17 -2 -8 0
-31 7 -41 -15 36 0
15 -25 -6 -47 -11 0
-11 3 21 12 22 0
16 22 -24 -10 -35 0
49 -25 33 -18 -41 0
-41 11 26 17 9 0
-25 3 -18 46 36 0
50 11 -41 -36 -40 0
-24 14 -22 -48 27 0
-4 17 45 41 50 0
-26 6 19 -35 4 0
3 5 22 -21 9 0
-25 29 -43 48 -6 0
5 32 -43 39 -14 0
-6 -32 -10 39 29 0
7 -45 -11 -50 13 0
38 50 1 -41 -47 0
13 -3 29 41 -36 0
29 16 48 -41 35 0
38 49 37 -28 -23 0
-39 23 43 11 -2 0
-34 28 -2 -11 -49 0
-5 -11 42 20 -17 0
-3 -50 9 -18 -41 0
-36 -30 18 16 39 0
11 6 31 20 -24 0
38 11 21 -3 -47 0
-34 20 9 -2 -19 0
40 13 49 -11 -35 0
-36 21 -2 -23 -44 0
39 42 -48 -33 -11 0
-39 -31 -49 -33 32 0
10 27 -40 26 45 0
-31 -20 -41 5 49 0
16 8 -14 25 -12 0
-7 -38 27 -26 -43 0
-26 -4 24 43 5 0
-24 -41 46 14 -45 0
27 -37 50 11 29 0
50 36 -27 -6 -48 0
16 28 2 -46 -33 0
-39 37 -10 -27 45 0
-32 -24 20 18 -14 0
-33 -50 -11 -18 -47 0
-30 -21 -47 40 -13 0
34 -37 22 15 3 0
-32 -42 -43 35 -44 0
36 40 -2 -12 45 0
-4 17 -5 -11 -34 0
7 -3 -45 38 18 0
13 44 35 39 -3 0
47 -12 -13 34 7 0
-45 37 -40 14 -48 0
-45 -35 -26 -25 -20 0
-35 41 -16 -49 -18 0
3 -15 39 -29 27 0
10 -4 50 -30 -42 0
-17 40 41 35 -20 0
-16 -9 27 50 -34 0
-31 36 -27 -7 -24 0
-38 28 15 -32 -46 0
14 3 29 -40 -23 0
21 -50 -33 27 -9 0
27 -31 -12 4 9 0
-42 8 -12 37 -22 0
46 -30 7 43 21 0
-47 -4 -37 16 34 0
-47 -3 35 22 32 0
21 -50 -38 6 -3 0
-7 -50 -36 31 19 0
-48 4 20 38 -50 0
-21 45 -16 -2 40 0
-13 17 21 -25 49 0
25 -3 37 -49 -1 0
-1 -37 19 -36 -17 0
-2 -26 -32 36 31 0
44 6 -29 -36 -27 0
20 -34 24 -21 -4 0
37 -3 -17 21 49 0
-14 42 3 44 -25 0
-41 -26 30 -15 -46 0
-13 33 38 5 -1 0
26 50 13 48 -9 0
7 46 27 -14 -47 0
37 3 1 30 23 0
-11 -29 -4 7 25 0
-8 -11 35 43 -24 0
-17 12 -4 15 32 0
24 50 6 7 32 0
-48 47 9 -10 49 0
-36 -3 -50 10 -16 0
17 -28 -31 -39 50 0
35 -11 -44 26 40 0
-41 -34 -21 -26 -37 0
32 30 24 33 -40 0
22 32 -36 -10 -16 0
30 -1 -22 -40 -26 0
15 48 -42 16 23 0
21 5 14 15 -11 0
-20 8 -41 -17 2 0
31 -41 20 30 -40 0
14 -47 38 48 41 0
36 18 12 -6 -47 0
31 -41 -16 -9 23 0
47 18 2 -38 -29 0
-38 44 49 -46 -40 0
-36 47 12 -7 15 0
20 47 9 11 -24 0
37 -13 -39 1 12 0
30 -4 -32 20 2 0
50 -18 -40 48 22 0
20 11 50 35 -44 0
-15 -32 -10 -38 6 0
-8 -44 -39 -14 29 0
43 41 39 11 -21 0
21 1 -31 3 -44 0
30 23 4 20 -3 0
-9 -15 -43 13 -36 0
-28 -23 -30 20 32 0
3 10 48 45 21 0
32 -42 27 -20 -38 0
47 26 29 -5 16 0
-7 19 36 -39 -27 0
-43 -48 20 45 -19 0
2 -10 -11 18 -48 0
-47 -33 -23 -7 -13 0
-16 25 34 -41 -32 0
-36 17 -3 -21 -26 0
49 14 -5 21 33 0
31 34 -33 -46 14 0
38 23 20 -17 5 0
-26 -19 -31 -41 -32 0
48 28 26 -37 -19 0
23 20 -24 -7 21 0
40 21 -34 26 -8 0
-24 40 -34 -32 -11 0
-44 19 22 21 18 0
-44 -47 -48 -34 41 0
-22 12 -3 -10 17 0
-11 32 -14 3 44 0
-3 -14 -17 20 48 0
-9 -4 32 48 29 0
-42 20 37 -15 -40 0
-16 -20 -28 32 -13 0
35 41 -44 -7 -28 0
48 45 29 19 18 0
-48 46 7 -40 -21 0
50 -37 7 36 45 0
3 -13 26 50 -29 0
-22 -10 50 7 20 0
20 -10 34 -6 -21 0
47 -28 -3 -38 44 0
-28 -31 -30 -24 35 0
-15 -17 -41 -20 34 0
-46 3 39 31 2 0
24 1 -29 -27 8 0
34 18 24 28 -25 0
43 8 -48 23 26 0
-45 48 43 -35 8 0
43 -14 33 -4 24 0
-14 50 31 -38 35 0
21 38 35 36 16 0
4 36 19 -2 15 0
47 -12 40 7 -10 0
37 -6 19 -17 3 0
-19 1 -16 -20 4 0
32 -31 26 5 14 0
-29 -12 -4 36 -33 0
3 -11 -26 -8 46 0
29 48 -33 -24 38 0
24 -45 -2 34 19 0
10 -39 44 17 -43 0
-32 -33 -12 -1 14 0
28 21 38 39 8 0
-6 -4 -16 23 -36 0
2 -7 -50 -45 -22 0
15 43 33 -34 35 0
-44 50 39 -45 -7 0
-46 47 36 -42 -1 0
-8 30 -33 -1 -39 0
2 48 -26 -37 -12 0
-19 48 22 26 -8 0
39 18 23 22 -46 0
25 46 10 -48 2 0
-6 8 -38 -16 -40 0
-37 -44 34 23 -28 0
7 27 -21 -16 -4 0
-39 23 42 -43 -32 0
8 -39 2 3 -24 0
1 -44 21 -36 14 0
-1 20 -18 -45 41 0
46 -23 -1 35 12 0
-45 2 39 3 7 0
1 17 3 -28 -5 0
50 38 3 -36 7 0
7 -5 -29 36 -9 0
-10 37 -25 48 11 0
-4 -36 -49 -38 28 0
-32 8 -39 10 45 0
-32 -22 -24 -41 -2 0
-39 46 -7 -26 9 0
-49 10 -30 5 -20 0
38 29 37 -42 33 0
10 40 -6 29 -36 0
47 -37 -7 -19 -22 0
-21 2 -45 1 -7 0
-1 19 -2 -26 18 0
-21 36 -40 15 6 0
-29 -10 8 50 -12 0
5 -21 14 -32 10 0
-29 -23 40 6 -15 0
-6 23 -19 22 2 0
12 49 3 1 -36 0
-3 -48 37 13 6 0
31 42 40 16 8 0
-2 -23 19 -32 39 0
7 17 -9 26 8 0
-27 -45 -9 -33 5 0
21 4 11 30 15 0
10 13 2 17 -5 0
-16 13 -26 4 39 0
-30 -39 13 28 35 0
-32 -48 6 15 -21 0
11 49 38 -31 -39 0
20 5 14 2 39 0
22 34 -25 -50 14 0
-44 -15 34 -32 27 0
-36 5 -8 -29 -28 0
13 -10 35 -33 40 0
-17 49 7 44 -20 0
49 46 -2 -27 24 0
31 -44 7 -32 47 0
-32 45 -11 27 -20 0
-11 -12 26 30 46 0
43 -18 31 -11 20 0
-12 -23 7 -32 42 0
-35 -17 -25 -2 -41 0
-9 12 11 -26 -36 0
-7 -47 8 3 11 0
-19 14 -39 -45 -4 0
32 -16 38 -19 29 0
-12 4 -5 -50 -44 0
-23 -49 -32 -19 14 0
-6 50 -39 -37 36 0
-28 -11 -31 -41 45 0
44 -41 -3 -46 -28 0
27 -34 19 -9 -25 0
20 -6 1 -41 -4 0
1 2 51 0
-1 2 -51 0
1 -2 -51 0
-1 -2 51 0
-3 5 52 0
3 5 -52 0
-3 -5 -52 0
3 -5 52 0
6 -7 53 0
-6 -7 -53 0
6 7 -53 0
-6 7 53 0
8 11 54 0
-8 11 -54 0
8 -11 -54 0
-8 -11 54 0
13 -15 55 0
-13 -15 -55 0
13 15 -55 0
-13 15 55 0
16 18 56 0
-16 18 -56 0
16 -18 -56 0
-16 -18 56 0
-20 -23 57 0
20 -23 -57 0
-20 23 -57 0
20 23 57 0
26 -28 58 0
-26 -28 -58 0
26 28 -58 0
-26 28 58 0
-29 -30 59 0
29 -30 -59 0
-29 30 -59 0
29 30 59 0
38 42 60 0
-38 42 -60 0
38 -42 -60 0
-38 -42 60 0
-44 -45 61 0
44 -45 -61 0
-44 45 -61 0
44 45 61 0
-47 48 62 0
47 48 -62 0
-47 -48 -62 0
47 -48 62 0
51 -52 63 0
-51 -52 -63 0
51 52 -63 0
-51 52 63 0
53 -54 64 0
-53 -54 -64 0
53 54 -64 0
-53 54 64 0
55 -56 65 0
-55 -56 -65 0
55 56 -65 0
-55 56 65 0
57 -58 66 0
-57 -58 -66 0
57 58 -66 0
-57 58 66 0
59 -60 67 0
-59 -60 -67 0
59 60 -67 0
-59 60 67 0
61 -62 68 0
-61 -62 -68 0
61 62 -68 0
-61 62 68 0
63 -64 69 0
-63 -64 -69 0
63 64 -69 0
-63 64 69 0
65 -66 70 0
-65 -66 -70 0
65 66 -70 0
-65 66 70 0
67 -68 71 0
-67 -68 -71 0
67 68 -71 0
-67 68 71 0
-69 -70 71 0
69 -70 -71 0
-69 70 -71 0
69 70 71 0
-2 -4 72 0
2 -4 -72 0
-2 4 -72 0
2 4 72 0
-6 -9 73 0
6 -9 -73 0
-6 9 -73 0
6 9 73 0
-12 -15 74 0
12 -15 -74 0
-12 15 -74 0
12 15 74 0
16 -17 75 0
-16 -17 -75 0
16 17 -75 0
-16 17 75 0
19 20 76 0
-19 20 -76 0
19 -20 -76 0
-19 -20 76 0
-24 26 77 0
24 26 -77 0
-24 -26 -77 0
24 -26 77 0
-27 28 78 0
27 28 -78 0
-27 -28 -78 0
27 -28 78 0
-29 30 79 0
29 30 -79 0
-29 -30 -79 0
29 -30 79 0
35 39 80 0
-35 39 -80 0
35 -39 -80 0
-35 -39 80 0
-41 44 81 0
41 44 -81 0
-41 -44 -81 0
41 -44 81 0
-46 47 82 0
46 47 -82 0
-46 -47 -82 0
46 -47 82 0
48 -49 83 0
-48 -49 -83 0
48 49 -83 0
-48 49 83 0
71 -72 84 0
-71 -72 -84 0
71 72 -84 0
-71 72 84 0
73 -74 85 0
-73 -74 -85 0
73 74 -85 0
-73 74 85 0
75 -76 86 0
-75 -76 -86 0
75 76 -86 0
-75 76 86 0
77 -78 87 0
-77 -78 -87 0
77 78 -87 0
-77 78 87 0
79 -80 88 0
-79 -80 -88 0
79 80 -88 0
-79 80 88 0
81 -82 89 0
-81 -82 -89 0
81 82 -89 0
-81 82 89 0
83 -84 90 0
-83 -84 -90 0
83 84 -90 0
-83 84 90 0
85 -86 91 0
-85 -86 -91 0
85 86 -91 0
-85 86 91 0
87 -88 92 0
-87 -88 -92 0
87 88 -92 0
-87 88 92 0
89 -90 93 0
-89 -90 -93 0
89 90 -93 0
-89 90 93 0
91 -92 94 0
-91 -92 -94 0
91 92 -94 0
-91 92 94 0
93 94 0
-93 -94 0
1 -2 95 0
-1 -2 -95 0
1 2 -95 0
-1 2 95 0
4 -7 96 0
-4 -7 -96 0
4 7 -96 0
-4 7 96 0
9 -12 97 0
-9 -12 -97 0
9 12 -97 0
-9 12 97 0
14 19 98 0
-14 19 -98 0
14 -19 -98 0
-14 -19 98 0
-20 25 99 0
20 25 -99 0
-20 -25 -99 0
20 -25 99 0
-26 -27 100 0
26 -27 -100 0
-26 27 -100 0
26 27 100 0
28 33 101 0
-28 33 -101 0
28 -33 -101 0
-28 -33 101 0
-34 38 102 0
34 38 -102 0
-34 -38 -102 0
34 -38 102 0
40 -42 103 0
-40 -42 -103 0
40 42 -103 0
-40 42 103 0
43 -44 104 0
-43 -44 -104 0
43 44 -104 0
-43 44 104 0
46 47 105 0
-46 47 -105 0
46 -47 -105 0
-46 -47 105 0
94 -95 106 0
-94 -95 -106 0
94 95 -106 0
-94 95 106 0
96 -97 107 0
-96 -97 -107 0
96 97 -107 0
-96 97 107 0
98 -99 108 0
-98 -99 -108 0
98 99 -108 0
-98 99 108 0
100 -101 109 0
-100 -101 -109 0
100 101 -109 0
-100 101 109 0
102 -103 110 0
-102 -103 -110 0
102 103 -110 0
-102 103 110 0
104 -105 111 0
-104 -105 -111 0
104 105 -111 0
-104 105 111 0
106 -107 112 0
-106 -107 -112 0
106 107 -112 0
-106 107 112 0
108 -109 113 0
-108 -109 -113 0
108 109 -113 0
-108 109 113 0
110 -111 114 0
-110 -111 -114 0
110 111 -114 0
-110 111 114 0
-112 -113 114 0
112 -113 -114 0
-112 113 -114 0
112 113 114 0
1 -3 115 0
-1 -3 -115 0
1 3 -115 0
-1 3 115 0
-5 -6 116 0
5 -6 -116 0
-5 6 -116 0
5 6 116 0
7 -8 117 0
-7 -8 -117 0
7 8 -117 0
-7 8 117 0
-9 -10 118 0
9 -10 -118 0
-9 10 -118 0
9 10 118 0
-11 12 119 0
11 12 -119 0
-11 -12 -119 0
11 -12 119 0
14 -17 120 0
-14 -17 -120 0
14 17 -120 0
-14 17 120 0
-18 -19 121 0
18 -19 -121 0
-18 19 -121 0
18 19 121 0
-20 21 122 0
20 21 -122 0
-20 -21 -122 0
20 -21 122 0
-24 26 123 0
24 26 -123 0
-24 -26 -123 0
24 -26 123 0
-28 -30 124 0
28 -30 -124 0
-28 30 -124 0
28 30 124 0
33 -41 125 0
-33 -41 -125 0
33 41 -125 0
-33 41 125 0
114 -115 126 0
-114 -115 -126 0
114 115 -126 0
-114 115 126 0
116 -117 127 0
-116 -117 -127 0
116 117 -127 0
-116 117 127 0
118 -119 128 0
-118 -119 -128 0
118 119 -128 0
-118 119 128 0
120 -121 129 0
-120 -121 -129 0
120 121 -129 0
-120 121 129 0
122 -123 130 0
-122 -123 -130 0
122 123 -130 0
-122 123 130 0
124 -125 131 0
-124 -125 -131 0
124 125 -131 0
-124 125 131 0
126 -127 132 0
-126 -127 -132 0
126 127 -132 0
-126 127 132 0
128 -129 133 0
-128 -129 -133 0
128 129 -133 0
-128 129 133 0
130 -131 134 0
-130 -131 -134 0
130 131 -134 0
-130 131 134 0
-132 -133 134 0
132 -133 -134 0
-132 133 -134 0
132 133 134 0
-1 2 135 0
1 2 -135 0
-1 -2 -135 0
1 -2 135 0
-5 -6 136 0
5 -6 -136 0
-5 6 -136 0
5 6 136 0
7 8 137 0
-7 8 -137 0
7 -8 -137 0
-7 -8 137 0
-9 10 138 0
9 10 -138 0
-9 -10 -138 0
9 -10 138 0
11 -12 139 0
-11 -12 -139 0
11 12 -139 0
-11 12 139 0
13 -14 140 0
-13 -14 -140 0
13 14 -140 0
-13 14 140 0
-17 -18 141 0
17 -18 -141 0
-17 18 -141 0
17 18 141 0
19 -22 142 0
-19 -22 -142 0
19 22 -142 0
-19 22 142 0
24 27 143 0
-24 27 -143 0
24 -27 -143 0
-24 -27 143 0
28 -31 144 0
-28 -31 -144 0
28 31 -144 0
-28 31 144 0
-33 -35 145 0
33 -35 -145 0
-33 35 -145 0
33 35 145 0
-36 42 146 0
36 42 -146 0
-36 -42 -146 0
36 -42 146 0
-43 44 147 0
43 44 -147 0
-43 -44 -147 0
43 -44 147 0
-46 -47 148 0
46 -47 -148 0
-46 47 -148 0
46 47 148 0
135 -136 149 0
-135 -136 -149 0
135 136 -149 0
-135 136 149 0
137 -138 150 0
-137 -138 -150 0
137 138 -150 0
-137 138 150 0
139 -140 151 0
-139 -140 -151 0
139 140 -151 0
-139 140 151 0
141 -142 152 0
-141 -142 -152 0
141 142 -152 0
-141 142 152 0
143 -144 153 0
-143 -144 -153 0
143 144 -153 0
-143 144 153 0
145 -146 154 0
-145 -146 -154 0
145 146 -154 0
-145 146 154 0
147 -148 155 0
-147 -148 -155 0
147 148 -155 0
-147 148 155 0
149 -150 156 0
-149 -150 -156 0
149 150 -156 0
-149 150 156 0
151 -152 157 0
-151 -152 -157 0
151 152 -157 0
-151 152 157 0
153 -154 158 0
-153 -154 -158 0
153 154 -158 0
-153 154 158 0
155 -156 159 0
-155 -156 -159 0
155 156 -159 0
-155 156 159 0
157 -158 160 0
-157 -158 -160 0
157 158 -160 0
-157 158 160 0
159 160 0
-159 -160 0
1 2 161 0
-1 2 -161 0
1 -2 -161 0
-1 -2 161 0
-3 -4 162 0
3 -4 -162 0
-3 4 -162 0
3 4 162 0
-5 -8 163 0
5 -8 -163 0
-5 8 -163 0
5 8 163 0
-10 -11 164 0
10 -11 -164 0
-10 11 -164 0
10 11 164 0
12 -13 165 0
-12 -13 -165 0
12 13 -165 0
-12 13 165 0
-14 -15 166 0
14 -15 -166 0
-14 15 -166 0
14 15 166 0
-16 18 167 0
16 18 -167 0
-16 -18 -167 0
16 -18 167 0
22 -23 168 0
-22 -23 -168 0
22 23 -168 0
-22 23 168 0
-25 -26 169 0
25 -26 -169 0
-25 26 -169 0
25 26 169 0
30 -31 170 0
-30 -31 -170 0
30 31 -170 0
-30 31 170 0
33 35 171 0
-33 35 -171 0
33 -35 -171 0
-33 -35 171 0
-37 -40 172 0
37 -40 -172 0
-37 40 -172 0
37 40 172 0
-41 42 173 0
41 42 -173 0
-41 -42 -173 0
41 -42 173 0
160 -161 174 0
-160 -161 -174 0
160 161 -174 0
-160 161 174 0
162 -163 175 0
-162 -163 -175 0
162 163 -175 0
-162 163 175 0
164 -165 176 0
-164 -165 -176 0
164 165 -176 0
-164 165 176 0
166 -167 177 0
-166 -167 -177 0
166 167 -177 0
-166 167 177 0
168 -169 178 0
-168 -169 -178 0
168 169 -178 0
-168 169 178 0
170 -171 179 0
-170 -171 -179 0
170 171 -179 0
-170 171 179 0
172 -173 180 0
-172 -173 -180 0
172 173 -180 0
-172 173 180 0
174 -175 181 0
-174 -175 -181 0
174 175 -181 0
-174 175 181 0
176 -177 182 0
-176 -177 -182 0
176 177 -182 0
-176 177 182 0
178 -179 183 0
-178 -179 -183 0
178 179 -183 0
-178 179 183 0
180 -181 184 0
-180 -181 -184 0
180 181 -184 0
-180 181 184 0
182 -183 185 0
-182 -183 -185 0
182 183 -185 0
-182 183 185 0
184 185 0
-184 -185 0
4 -6 186 0
-4 -6 -186 0
4 6 -186 0
-4 6 186 0
9 -10 187 0
-9 -10 -187 0
9 10 -187 0
-9 10 187 0
-12 -14 188 0
12 -14 -188 0
-12 14 -188 0
12 14 188 0
-15 16 189 0
15 16 -189 0
-15 -16 -189 0
15 -16 189 0
18 -20 190 0
-18 -20 -190 0
18 20 -190 0
-18 20 190 0
-25 27 191 0
25 27 -191 0
-25 -27 -191 0
25 -27 191 0
-28 -29 192 0
28 -29 -192 0
-28 29 -192 0
28 29 192 0
-30 32 193 0
30 32 -193 0
-30 -32 -193 0
30 -32 193 0
33 34 194 0
-33 34 -194 0
33 -34 -194 0
-33 -34 194 0
-35 37 195 0
35 37 -195 0
-35 -37 -195 0
35 -37 195 0
-39 -40 196 0
39 -40 -196 0
-39 40 -196 0
39 40 196 0
-41 -42 197 0
41 -42 -197 0
-41 42 -197 0
41 42 197 0
-43 -45 198 0
43 -45 -198 0
-43 45 -198 0
43 45 198 0
49 50 199 0
-49 50 -199 0
49 -50 -199 0
-49 -50 199 0
186 -187 200 0
-186 -187 -200 0
186 187 -200 0
-186 187 200 0
188 -189 201 0
-188 -189 -201 0
188 189 -201 0
-188 189 201 0
190 -191 202 0
-190 -191 -202 0
190 191 -202 0
-190 191 202 0
192 -193 203 0
-192 -193 -203 0
192 193 -203 0
-192 193 203 0
194 -195 204 0
-194 -195 -204 0
194 195 -204 0
-194 195 204 0
196 -197 205 0
-196 -197 -205 0
196 197 -205 0
-196 197 205 0
198 -199 206 0
-198 -199 -206 0
198 199 -206 0
-198 199 206 0
200 -201 207 0
-200 -201 -207 0
200 201 -207 0
-200 201 207 0
202 -203 208 0
-202 -203 -208 0
202 203 -208 0
-202 203 208 0
204 -205 209 0
-204 -205 -209 0
204 205 -209 0
-204 205 209 0
206 -207 210 0
-206 -207 -210 0
206 207 -210 0
-206 207 210 0
208 -209 211 0
-208 -209 -211 0
208 209 -211 0
-208 209 211 0
210 211 0
-210 -211 0
-1 -3 212 0
1 -3 -212 0
-1 3 -212 0
1 3 212 0
-7 -8 213 0
7 -8 -213 0
-7 8 -213 0
7 8 213 0
-9 -11 214 0
9 -11 -214 0
-9 11 -214 0
9 11 214 0
12 13 215 0
-12 13 -215 0
12 -13 -215 0
-12 -13 215 0
14 -16 216 0
-14 -16 -216 0
14 16 -216 0
-14 16 216 0
-17 19 217 0
17 19 -217 0
-17 -19 -217 0
17 -19 217 0
-20 -21 218 0
20 -21 -218 0
-20 21 -218 0
20 21 218 0
-23 -29 219 0
23 -29 -219 0
-23 29 -219 0
23 29 219 0
30 -31 220 0
-30 -31 -220 0
30 31 -220 0
-30 31 220 0
-32 33 221 0
32 33 -221 0
-32 -33 -221 0
32 -33 221 0
35 -36 222 0
-35 -36 -222 0
35 36 -222 0
-35 36 222 0
-37 39 223 0
37 39 -223 0
-37 -39 -223 0
37 -39 223 0
-40 41 224 0
40 41 -224 0
-40 -41 -224 0
40 -41 224 0
43 46 225 0
-43 46 -225 0
43 -46 -225 0
-43 -46 225 0
-48 50 226 0
48 50 -226 0
-48 -50 -226 0
48 -50 226 0
212 -213 227 0
-212 -213 -227 0
212 213 -227 0
-212 213 227 0
214 -215 228 0
-214 -215 -228 0
214 215 -228 0
-214 215 228 0
216 -217 229 0
-216 -217 -229 0
216 217 -229 0
-216 217 229 0
218 -219 230 0
-218 -219 -230 0
218 219 -230 0
-218 219 230 0
220 -221 231 0
-220 -221 -231 0
220 221 -231 0
-220 221 231 0
222 -223 232 0
-222 -223 -232 0
222 223 -232 0
-222 223 232 0
224 -225 233 0
-224 -225 -233 0
224 225 -233 0
-224 225 233 0
226 -227 234 0
-226 -227 -234 0
226 227 -234 0
-226 227 234 0
228 -229 235 0
-228 -229 -235 0
228 229 -235 0
-228 229 235 0
230 -231 236 0
-230 -231 -236 0
230 231 -236 0
-230 231 236 0
232 -233 237 0
-232 -233 -237 0
232 233 -237 0
-232 233 237 0
234 -235 238 0
-234 -235 -238 0
234 235 -238 0
-234 235 238 0
236 -237 239 0
-236 -237 -239 0
236 237 -239 0
-236 237 239 0
238 239 0
-238 -239 0
4 -6 240 0
-4 -6 -240 0
4 6 -240 0
-4 6 240 0
-10 -11 241 0
10 -11 -241 0
-10 11 -241 0
10 11 241 0
13 -14 242 0
-13 -14 -242 0
13 14 -242 0
-13 14 242 0
-18 23 243 0
18 23 -243 0
-18 -23 -243 0
18 -23 243 0
-27 28 244 0
27 28 -244 0
-27 -28 -244 0
27 -28 244 0
29 30 245 0
-29 30 -245 0
29 -30 -245 0
-29 -30 245 0
-33 35 246 0
33 35 -246 0
-33 -35 -246 0
33 -35 246 0
-36 -38 247 0
36 -38 -247 0
-36 38 -247 0
36 38 247 0
-39 -40 248 0
39 -40 -248 0
-39 40 -248 0
39 40 248 0
42 45 249 0
-42 45 -249 0
42 -45 -249 0
-42 -45 249 0
46 47 250 0
-46 47 -250 0
46 -47 -250 0
-46 -47 250 0
49 -50 251 0
-49 -50 -251 0
49 50 -251 0
-49 50 251 0
240 -241 252 0
-240 -241 -252 0
240 241 -252 0
-240 241 252 0
242 -243 253 0
-242 -243 -253 0
242 243 -253 0
-242 243 253 0
244 -245 254 0
-244 -245 -254 0
244 245 -254 0
-244 245 254 0
246 -247 255 0
-246 -247 -255 0
246 247 -255 0
-246 247 255 0
248 -249 256 0
-248 -249 -256 0
248 249 -256 0
-248 249 256 0
250 -251 257 0
-250 -251 -257 0
250 251 -257 0
-250 251 257 0
252 -253 258 0
-252 -253 -258 0
252 253 -258 0
-252 253 258 0
254 -255 259 0
-254 -255 -259 0
254 255 -259 0
-254 255 259 0
256 -257 260 0
-256 -257 -260 0
256 257 -260 0
-256 257 260 0
-258 -259 260 0
258 -259 -260 0
-258 259 -260 0
258 259 260 0
1 -2 261 0
-1 -2 -261 0
1 2 -261 0
-1 2 261 0
4 -7 262 0
-4 -7 -262 0
4 7 -262 0
-4 7 262 0
8 10 263 0
-8 10 -263 0
8 -10 -263 0
-8 -10 263 0
-11 -15 264 0
11 -15 -264 0
-11 15 -264 0
11 15 264 0
16 17 265 0
-16 17 -265 0
16 -17 -265 0
-16 -17 265 0
-19 -20 266 0
19 -20 -266 0
-19 20 -266 0
19 20 266 0
23 -24 267 0
-23 -24 -267 0
23 24 -267 0
-23 24 267 0
-26 -27 268 0
26 -27 -268 0
-26 27 -268 0
26 27 268 0
28 -31 269 0
-28 -31 -269 0
28 31 -269 0
-28 31 269 0
-34 36 270 0
34 36 -270 0
-34 -36 -270 0
34 -36 270 0
-38 -39 271 0
38 -39 -271 0
-38 39 -271 0
38 39 271 0
-43 44 272 0
43 44 -272 0
-43 -44 -272 0
43 -44 272 0
-45 -47 273 0
45 -47 -273 0
-45 47 -273 0
45 47 273 0
48 49 274 0
-48 49 -274 0
48 -49 -274 0
-48 -49 274 0
260 -261 275 0
-260 -261 -275 0
260 261 -275 0
-260 261 275 0
262 -263 276 0
-262 -263 -276 0
262 263 -276 0
-262 263 276 0
264 -265 277 0
-264 -265 -277 0
264 265 -277 0
-264 265 277 0
266 -267 278 0
-266 -267 -278 0
266 267 -278 0
-266 267 278 0
268 -269 279 0
-268 -269 -279 0
268 269 -279 0
-268 269 279 0
270 -271 280 0
-270 -271 -280 0
270 271 -280 0
-270 271 280 0
272 -273 281 0
-272 -273 -281 0
272 273 -281 0
-272 273 281 0
274 -275 282 0
-274 -275 -282 0
274 275 -282 0
-274 275 282 0
276 -277 283 0
-276 -277 -283 0
276 277 -283 0
-276 277 283 0
278 -279 284 0
-278 -279 -284 0
278 279 -284 0
-278 279 284 0
280 -281 285 0
-280 -281 -285 0
280 281 -285 0
-280 281 285 0
282 -283 286 0
-282 -283 -286 0
282 283 -286 0
-282 283 286 0
284 -285 287 0
-284 -285 -287 0
284 285 -287 0
-284 285 287 0
286 287 0
-286 -287 0
